p cnf 1432
-5 1
-6 29
-7 -125
-8 -150
-9 -185
-10 -220
-11 -255
-12 -290
-13 -298
-14 -307
-15 -316
-16 -318
-17 5
-18 6
-19 7
-20 8
-21 9
-22 10
-23 11
-24 12
-25 13
-26 14
-27 15
-28 16
-29 1
-29 2
-1 -2 29
-30 1
-30 3
-1 -3 30
-31 1
-31 4
-1 -4 31
-32 2
-32 3
-2 -3 32
-33 2
-33 4
-2 -4 33
-34 -2
-34 30
2 -30 34
-35 2
-35 -30
-2 30 35
-36 -34
-36 -35
34 35 36
-37 2
-37 30
-2 -30 37
-38 -29
-38 -36
29 36 38
-39 29
-39 36
-29 -36 39
-40 -38
-40 -39
38 39 40
-41 29
-41 -36
-29 36 41
-42 -37
-42 -41
37 41 42
-43 31
-43 -32
-31 32 43
-44 -31
-44 32
31 -32 44
-45 -43
-45 -44
43 44 45
-46 31
-46 32
-31 -32 46
-47 42
-47 -45
-42 45 47
-48 -42
-48 45
42 -45 48
-49 -47
-49 -48
47 48 49
-50 -42
-50 -45
42 45 50
-51 -46
-51 -50
46 50 51
-52 33
-52 51
-33 -51 52
-53 -33
-53 -51
33 51 53
-54 -52
-54 -53
52 53 54
-55 33
-55 -51
-33 51 55
-56 3
-56 4
-3 -4 56
-57 -30
-57 -40
30 40 57
-58 30
-58 40
-30 -40 58
-59 -57
-59 -58
57 58 59
-60 30
-60 -40
-30 40 60
-61 -32
-61 -49
32 49 61
-62 32
-62 49
-32 -49 62
-63 -61
-63 -62
61 62 63
-64 32
-64 -49
-32 49 64
-65 -60
-65 -63
60 63 65
-66 60
-66 63
-60 -63 66
-67 -65
-67 -66
65 66 67
-68 60
-68 -63
-60 63 68
-69 -64
-69 -68
64 68 69
-70 -3
-70 -54
3 54 70
-71 3
-71 54
-3 -54 71
-72 -70
-72 -71
70 71 72
-73 3
-73 -54
-3 54 73
-74 69
-74 -72
-69 72 74
-75 -69
-75 72
69 -72 75
-76 -74
-76 -75
74 75 76
-77 -69
-77 -72
69 72 77
-78 -73
-78 -77
73 77 78
-79 55
-79 -56
-55 56 79
-80 -55
-80 56
55 -56 80
-81 -79
-81 -80
79 80 81
-82 55
-82 56
-55 -56 82
-83 78
-83 -81
-78 81 83
-84 -78
-84 81
78 -81 84
-85 -83
-85 -84
83 84 85
-86 -78
-86 -81
78 81 86
-87 -82
-87 -86
82 86 87
-88 -31
-88 -67
31 67 88
-89 31
-89 67
-31 -67 89
-90 -88
-90 -89
88 89 90
-91 31
-91 -67
-31 67 91
-92 -33
-92 -76
33 76 92
-93 33
-93 76
-33 -76 93
-94 -92
-94 -93
92 93 94
-95 33
-95 -76
-33 76 95
-96 -91
-96 -94
91 94 96
-97 91
-97 94
-91 -94 97
-98 -96
-98 -97
96 97 98
-99 91
-99 -94
-91 94 99
-100 -95
-100 -99
95 99 100
-101 -56
-101 -85
56 85 101
-102 56
-102 85
-56 -85 102
-103 -101
-103 -102
101 102 103
-104 56
-104 -85
-56 85 104
-105 100
-105 -103
-100 103 105
-106 -100
-106 103
100 -103 106
-107 -105
-107 -106
105 106 107
-108 -100
-108 -103
100 103 108
-109 -104
-109 -108
104 108 109
-110 -4
-110 -87
4 87 110
-111 4
-111 87
-4 -87 111
-112 -110
-112 -111
110 111 112
-113 4
-113 -87
-4 87 113
-114 109
-114 -112
-109 112 114
-115 -109
-115 112
109 -112 115
-116 -114
-116 -115
114 115 116
-117 -109
-117 -112
109 112 117
-118 -113
-118 -117
113 117 118
-119 1
-119 -59
-1 59 119
-120 2
-120 -59
-2 59 120
-121 3
-121 -59
-3 59 121
-122 4
-122 -59
-4 59 122
-123 30
-123 -119
-30 119 123
-124 -30
-124 119
30 -119 124
-125 -123
-125 -124
123 124 125
-126 30
-126 119
-30 -119 126
-127 31
-127 -120
-31 120 127
-128 -31
-128 120
31 -120 128
-129 -127
-129 -128
127 128 129
-130 31
-130 120
-31 -120 130
-131 -126
-131 -129
126 129 131
-132 126
-132 129
-126 -129 132
-133 -131
-133 -132
131 132 133
-134 126
-134 -129
-126 129 134
-135 -130
-135 -134
130 134 135
-136 121
-136 135
-121 -135 136
-137 -121
-137 -135
121 135 137
-138 -136
-138 -137
136 137 138
-139 121
-139 -135
-121 135 139
-140 122
-140 -139
-122 139 140
-141 -122
-141 139
122 -139 141
-142 -140
-142 -141
140 141 142
-143 122
-143 139
-122 -139 143
-144 1
-144 -90
-1 90 144
-145 2
-145 -90
-2 90 145
-146 3
-146 -90
-3 90 146
-147 4
-147 -90
-4 90 147
-148 -133
-148 -144
133 144 148
-149 133
-149 144
-133 -144 149
-150 -148
-150 -149
148 149 150
-151 -133
-151 144
133 -144 151
-152 -138
-152 -145
138 145 152
-153 138
-153 145
-138 -145 153
-154 -152
-154 -153
152 153 154
-155 -138
-155 145
138 -145 155
-156 -151
-156 -154
151 154 156
-157 151
-157 154
-151 -154 157
-158 -156
-158 -157
156 157 158
-159 151
-159 -154
-151 154 159
-160 -155
-160 -159
155 159 160
-161 -142
-161 -146
142 146 161
-162 142
-162 146
-142 -146 162
-163 -161
-163 -162
161 162 163
-164 -142
-164 146
142 -146 164
-165 160
-165 -163
-160 163 165
-166 -160
-166 163
160 -163 166
-167 -165
-167 -166
165 166 167
-168 -160
-168 -163
160 163 168
-169 -164
-169 -168
164 168 169
-170 143
-170 -147
-143 147 170
-171 -143
-171 147
143 -147 171
-172 -170
-172 -171
170 171 172
-173 143
-173 147
-143 -147 173
-174 169
-174 -172
-169 172 174
-175 -169
-175 172
169 -172 175
-176 -174
-176 -175
174 175 176
-177 -169
-177 -172
169 172 177
-178 -173
-178 -177
173 177 178
-179 1
-179 -98
-1 98 179
-180 2
-180 -98
-2 98 180
-181 3
-181 -98
-3 98 181
-182 4
-182 -98
-4 98 182
-183 -158
-183 -179
158 179 183
-184 158
-184 179
-158 -179 184
-185 -183
-185 -184
183 184 185
-186 -158
-186 179
158 -179 186
-187 -167
-187 -180
167 180 187
-188 167
-188 180
-167 -180 188
-189 -187
-189 -188
187 188 189
-190 -167
-190 180
167 -180 190
-191 -186
-191 -189
186 189 191
-192 186
-192 189
-186 -189 192
-193 -191
-193 -192
191 192 193
-194 186
-194 -189
-186 189 194
-195 -190
-195 -194
190 194 195
-196 -176
-196 -181
176 181 196
-197 176
-197 181
-176 -181 197
-198 -196
-198 -197
196 197 198
-199 -176
-199 181
176 -181 199
-200 195
-200 -198
-195 198 200
-201 -195
-201 198
195 -198 201
-202 -200
-202 -201
200 201 202
-203 -195
-203 -198
195 198 203
-204 -199
-204 -203
199 203 204
-205 -178
-205 -182
178 182 205
-206 178
-206 182
-178 -182 206
-207 -205
-207 -206
205 206 207
-208 -178
-208 182
178 -182 208
-209 204
-209 -207
-204 207 209
-210 -204
-210 207
204 -207 210
-211 -209
-211 -210
209 210 211
-212 -204
-212 -207
204 207 212
-213 -208
-213 -212
208 212 213
-214 1
-214 -107
-1 107 214
-215 2
-215 -107
-2 107 215
-216 3
-216 -107
-3 107 216
-217 4
-217 -107
-4 107 217
-218 -193
-218 -214
193 214 218
-219 193
-219 214
-193 -214 219
-220 -218
-220 -219
218 219 220
-221 -193
-221 214
193 -214 221
-222 -202
-222 -215
202 215 222
-223 202
-223 215
-202 -215 223
-224 -222
-224 -223
222 223 224
-225 -202
-225 215
202 -215 225
-226 -221
-226 -224
221 224 226
-227 221
-227 224
-221 -224 227
-228 -226
-228 -227
226 227 228
-229 221
-229 -224
-221 224 229
-230 -225
-230 -229
225 229 230
-231 -211
-231 -216
211 216 231
-232 211
-232 216
-211 -216 232
-233 -231
-233 -232
231 232 233
-234 -211
-234 216
211 -216 234
-235 230
-235 -233
-230 233 235
-236 -230
-236 233
230 -233 236
-237 -235
-237 -236
235 236 237
-238 -230
-238 -233
230 233 238
-239 -234
-239 -238
234 238 239
-240 -213
-240 -217
213 217 240
-241 213
-241 217
-213 -217 241
-242 -240
-242 -241
240 241 242
-243 -213
-243 217
213 -217 243
-244 239
-244 -242
-239 242 244
-245 -239
-245 242
239 -242 245
-246 -244
-246 -245
244 245 246
-247 -239
-247 -242
239 242 247
-248 -243
-248 -247
243 247 248
-249 1
-249 -116
-1 116 249
-250 2
-250 -116
-2 116 250
-251 3
-251 -116
-3 116 251
-252 4
-252 -116
-4 116 252
-253 -228
-253 -249
228 249 253
-254 228
-254 249
-228 -249 254
-255 -253
-255 -254
253 254 255
-256 -228
-256 249
228 -249 256
-257 -237
-257 -250
237 250 257
-258 237
-258 250
-237 -250 258
-259 -257
-259 -258
257 258 259
-260 -237
-260 250
237 -250 260
-261 -256
-261 -259
256 259 261
-262 256
-262 259
-256 -259 262
-263 -261
-263 -262
261 262 263
-264 256
-264 -259
-256 259 264
-265 -260
-265 -264
260 264 265
-266 -246
-266 -251
246 251 266
-267 246
-267 251
-246 -251 267
-268 -266
-268 -267
266 267 268
-269 -246
-269 251
246 -251 269
-270 265
-270 -268
-265 268 270
-271 -265
-271 268
265 -268 271
-272 -270
-272 -271
270 271 272
-273 -265
-273 -268
265 268 273
-274 -269
-274 -273
269 273 274
-275 -248
-275 -252
248 252 275
-276 248
-276 252
-248 -252 276
-277 -275
-277 -276
275 276 277
-278 -248
-278 252
248 -252 278
-279 274
-279 -277
-274 277 279
-280 -274
-280 277
274 -277 280
-281 -279
-281 -280
279 280 281
-282 -274
-282 -277
274 277 282
-283 -278
-283 -282
278 282 283
-284 1
-284 -118
-1 118 284
-285 2
-285 -118
-2 118 285
-286 3
-286 -118
-3 118 286
-287 4
-287 -118
-4 118 287
-288 -263
-288 -284
263 284 288
-289 263
-289 284
-263 -284 289
-290 -288
-290 -289
288 289 290
-291 -263
-291 284
263 -284 291
-292 -272
-292 -285
272 285 292
-293 272
-293 285
-272 -285 293
-294 -292
-294 -293
292 293 294
-295 -272
-295 285
272 -285 295
-296 -291
-296 -294
291 294 296
-297 291
-297 294
-291 -294 297
-298 -296
-298 -297
296 297 298
-299 291
-299 -294
-291 294 299
-300 -295
-300 -299
295 299 300
-301 -281
-301 -286
281 286 301
-302 281
-302 286
-281 -286 302
-303 -301
-303 -302
301 302 303
-304 -281
-304 286
281 -286 304
-305 300
-305 -303
-300 303 305
-306 -300
-306 303
300 -303 306
-307 -305
-307 -306
305 306 307
-308 -300
-308 -303
300 303 308
-309 -304
-309 -308
304 308 309
-310 -283
-310 -287
283 287 310
-311 283
-311 287
-283 -287 311
-312 -310
-312 -311
310 311 312
-313 -283
-313 287
283 -287 313
-314 309
-314 -312
-309 312 314
-315 -309
-315 312
309 -312 315
-316 -314
-316 -315
314 315 316
-317 -309
-317 -312
309 312 317
-318 -313
-318 -317
313 317 318
-319 1
-319 -5
-1 5 319
-320 -1
-320 5
1 -5 320
-321 -319
-321 -320
319 320 321
-322 1
-322 5
-1 -5 322
-323 -6
-323 29
6 -29 323
-324 6
-324 -29
-6 29 324
-325 -323
-325 -324
323 324 325
-326 6
-326 29
-6 -29 326
-327 -322
-327 -325
322 325 327
-328 322
-328 325
-322 -325 328
-329 -327
-329 -328
327 328 329
-330 322
-330 -325
-322 325 330
-331 -326
-331 -330
326 330 331
-332 -7
-332 -125
7 125 332
-333 7
-333 125
-7 -125 333
-334 -332
-334 -333
332 333 334
-335 7
-335 -125
-7 125 335
-336 331
-336 -334
-331 334 336
-337 -331
-337 334
331 -334 337
-338 -336
-338 -337
336 337 338
-339 -331
-339 -334
331 334 339
-340 -335
-340 -339
335 339 340
-341 -8
-341 -150
8 150 341
-342 8
-342 150
-8 -150 342
-343 -341
-343 -342
341 342 343
-344 8
-344 -150
-8 150 344
-345 340
-345 -343
-340 343 345
-346 -340
-346 343
340 -343 346
-347 -345
-347 -346
345 346 347
-348 -340
-348 -343
340 343 348
-349 -344
-349 -348
344 348 349
-350 -9
-350 -185
9 185 350
-351 9
-351 185
-9 -185 351
-352 -350
-352 -351
350 351 352
-353 9
-353 -185
-9 185 353
-354 349
-354 -352
-349 352 354
-355 -349
-355 352
349 -352 355
-356 -354
-356 -355
354 355 356
-357 -349
-357 -352
349 352 357
-358 -353
-358 -357
353 357 358
-359 -10
-359 -220
10 220 359
-360 10
-360 220
-10 -220 360
-361 -359
-361 -360
359 360 361
-362 10
-362 -220
-10 220 362
-363 358
-363 -361
-358 361 363
-364 -358
-364 361
358 -361 364
-365 -363
-365 -364
363 364 365
-366 -358
-366 -361
358 361 366
-367 -362
-367 -366
362 366 367
-368 -11
-368 -255
11 255 368
-369 11
-369 255
-11 -255 369
-370 -368
-370 -369
368 369 370
-371 11
-371 -255
-11 255 371
-372 367
-372 -370
-367 370 372
-373 -367
-373 370
367 -370 373
-374 -372
-374 -373
372 373 374
-375 -367
-375 -370
367 370 375
-376 -371
-376 -375
371 375 376
-377 -12
-377 -290
12 290 377
-378 12
-378 290
-12 -290 378
-379 -377
-379 -378
377 378 379
-380 12
-380 -290
-12 290 380
-381 376
-381 -379
-376 379 381
-382 -376
-382 379
376 -379 382
-383 -381
-383 -382
381 382 383
-384 -376
-384 -379
376 379 384
-385 -380
-385 -384
380 384 385
-386 -13
-386 -298
13 298 386
-387 13
-387 298
-13 -298 387
-388 -386
-388 -387
386 387 388
-389 13
-389 -298
-13 298 389
-390 385
-390 -388
-385 388 390
-391 -385
-391 388
385 -388 391
-392 -390
-392 -391
390 391 392
-393 -385
-393 -388
385 388 393
-394 -389
-394 -393
389 393 394
-395 -14
-395 -307
14 307 395
-396 14
-396 307
-14 -307 396
-397 -395
-397 -396
395 396 397
-398 14
-398 -307
-14 307 398
-399 394
-399 -397
-394 397 399
-400 -394
-400 397
394 -397 400
-401 -399
-401 -400
399 400 401
-402 -394
-402 -397
394 397 402
-403 -398
-403 -402
398 402 403
-404 -15
-404 -316
15 316 404
-405 15
-405 316
-15 -316 405
-406 -404
-406 -405
404 405 406
-407 15
-407 -316
-15 316 407
-408 403
-408 -406
-403 406 408
-409 -403
-409 406
403 -406 409
-410 -408
-410 -409
408 409 410
-411 -403
-411 -406
403 406 411
-412 -407
-412 -411
407 411 412
-413 -16
-413 -318
16 318 413
-414 16
-414 318
-16 -318 414
-415 -413
-415 -414
413 414 415
-416 16
-416 -318
-16 318 416
-417 412
-417 -415
-412 415 417
-418 -412
-418 415
412 -415 418
-419 -417
-419 -418
417 418 419
-420 -412
-420 -415
412 415 420
-421 -416
-421 -420
416 420 421
-422 17
-422 -321
-17 321 422
-423 -17
-423 321
17 -321 423
-424 -422
-424 -423
422 423 424
-425 18
-425 -329
-18 329 425
-426 -18
-426 329
18 -329 426
-427 -425
-427 -426
425 426 427
-428 19
-428 -338
-19 338 428
-429 -19
-429 338
19 -338 429
-430 -428
-430 -429
428 429 430
-431 20
-431 -347
-20 347 431
-432 -20
-432 347
20 -347 432
-433 -431
-433 -432
431 432 433
-434 21
-434 -356
-21 356 434
-435 -21
-435 356
21 -356 435
-436 -434
-436 -435
434 435 436
-437 22
-437 -365
-22 365 437
-438 -22
-438 365
22 -365 438
-439 -437
-439 -438
437 438 439
-440 23
-440 -374
-23 374 440
-441 -23
-441 374
23 -374 441
-442 -440
-442 -441
440 441 442
-443 24
-443 -383
-24 383 443
-444 -24
-444 383
24 -383 444
-445 -443
-445 -444
443 444 445
-446 25
-446 -392
-25 392 446
-447 -25
-447 392
25 -392 447
-448 -446
-448 -447
446 447 448
-449 26
-449 -401
-26 401 449
-450 -26
-450 401
26 -401 450
-451 -449
-451 -450
449 450 451
-452 27
-452 -410
-27 410 452
-453 -27
-453 410
27 -410 453
-454 -452
-454 -453
452 453 454
-455 28
-455 -419
-28 419 455
-456 -28
-456 419
28 -419 456
-457 -455
-457 -456
455 456 457
-458 -424
-458 -427
424 427 458
-459 -430
-459 -433
430 433 459
-460 -436
-460 -439
436 439 460
-461 -442
-461 -445
442 445 461
-462 -448
-462 -451
448 451 462
-463 -454
-463 -457
454 457 463
-464 458
-464 459
-458 -459 464
-465 460
-465 461
-460 -461 465
-466 462
-466 463
-462 -463 466
-467 464
-467 465
-464 -465 467
-468 421
-468 466
-421 -466 468
-469 467
-469 468
-467 -468 469
-470 -1
-470 -2
1 2 470
-471 -3
-471 -4
3 4 471
-472 470
-472 471
-470 -471 472
-473 -5
-473 -6
5 6 473
-474 -7
-474 -8
7 8 474
-475 -9
-475 -10
9 10 475
-476 -11
-476 -12
11 12 476
-477 -13
-477 -14
13 14 477
-478 -15
-478 -16
15 16 478
-479 473
-479 474
-473 -474 479
-480 475
-480 476
-475 -476 480
-481 477
-481 478
-477 -478 481
-482 479
-482 480
-479 -480 482
-483 481
-483 482
-481 -482 483
-484 -17
-484 -18
17 18 484
-485 -19
-485 -20
19 20 485
-486 -21
-486 -22
21 22 486
-487 -23
-487 -24
23 24 487
-488 -25
-488 -26
25 26 488
-489 -27
-489 -28
27 28 489
-490 484
-490 485
-484 -485 490
-491 486
-491 487
-486 -487 491
-492 488
-492 489
-488 -489 492
-493 490
-493 491
-490 -491 493
-494 492
-494 493
-492 -493 494
-495 -472
-495 -483
472 483 495
-496 -494
-496 495
494 -495 496
-497 469
-497 496
-469 -496 497
497
